(set-logic HORN)
(declare-fun itp_0 (Int Int) Bool)
(declare-fun itp_1 (Int Int) Bool)
(declare-fun itp_2 (Int Int) Bool)
(declare-fun itp_3 (Int Int) Bool)
(declare-fun itp_4 (Int Int) Bool)

(assert (forall ((|_FH_0'| Int) (|count'| Int))
  (=>
    (and (or (= |_FH_0'| 1) (= |_FH_0'| 2) (= |_FH_0'| 3) (= |_FH_0'| 4) (= |_FH_0'| 5) (= |_FH_0'| 6) (= |_FH_0'| 7) (= |_FH_0'| 8) (= |_FH_0'| 9) (= |_FH_0'| 10) (= |_FH_0'| 11) (= |_FH_0'| 12) (= |_FH_0'| 13) (= |_FH_0'| 14) (= |_FH_0'| 15) (= |_FH_0'| 16) (= |_FH_0'| 17) (= |_FH_0'| 18) (= |_FH_0'| 19) (= |_FH_0'| 20) (= |_FH_0'| 21) (= |_FH_0'| 22) (= |_FH_0'| 23) (= |_FH_0'| 24) (= |_FH_0'| 25) (= |_FH_0'| 26) (= |_FH_0'| 27) (= |_FH_0'| 28) (= |_FH_0'| 29) (= |_FH_0'| 30) (= |_FH_0'| 31) (= |_FH_0'| 32) (= |_FH_0'| 33) (= |_FH_0'| 34) (= |_FH_0'| 35) (= |_FH_0'| 36) (= |_FH_0'| 37) (= |_FH_0'| 38) (= |_FH_0'| 39) (= |_FH_0'| 40) (= |_FH_0'| 41) (= |_FH_0'| 42) (= |_FH_0'| 43) (= |_FH_0'| 44) (= |_FH_0'| 45) (= |_FH_0'| 46) (= |_FH_0'| 47) (= |_FH_0'| 48) (= |_FH_0'| 49) (= |_FH_0'| 50) (= |_FH_0'| 51) (= |_FH_0'| 52) (= |_FH_0'| 53) (= |_FH_0'| 54) (= |_FH_0'| 55) (= |_FH_0'| 56) (= |_FH_0'| 57) (= |_FH_0'| 58) (= |_FH_0'| 59) (= |_FH_0'| 60) (= |_FH_0'| 61) (= |_FH_0'| 62) (= |_FH_0'| 63) (= |_FH_0'| 64) (= |_FH_0'| 65) (= |_FH_0'| 66) (= |_FH_0'| 67) (= |_FH_0'| 68) (= |_FH_0'| 69) (= |_FH_0'| 70) (= |_FH_0'| 71) (= |_FH_0'| 72) (= |_FH_0'| 73) (= |_FH_0'| 74) (= |_FH_0'| 75) (= |_FH_0'| 76) (= |_FH_0'| 77) (= |_FH_0'| 78) (= |_FH_0'| 79) (= |_FH_0'| 80) (= |_FH_0'| 81) (= |_FH_0'| 82) (= |_FH_0'| 83) (= |_FH_0'| 84) (= |_FH_0'| 85) (= |_FH_0'| 86) (= |_FH_0'| 87) (= |_FH_0'| 88) (= |_FH_0'| 89) (= |_FH_0'| 90) (= |_FH_0'| 91) (= |_FH_0'| 92) (= |_FH_0'| 93) (= |_FH_0'| 94) (= |_FH_0'| 95) (= |_FH_0'| 96) (= |_FH_0'| 97) (= |_FH_0'| 98) (= |_FH_0'| 99) (= |_FH_0'| 100) (= |_FH_0'| 101) (= |_FH_0'| 102) (= |_FH_0'| 103) (= |_FH_0'| 104) (= |_FH_0'| 105) (= |_FH_0'| 106) (= |_FH_0'| 107) (= |_FH_0'| 108) (= |_FH_0'| 109) (= |_FH_0'| 110) (= |_FH_0'| 111) (= |_FH_0'| 112) (= |_FH_0'| 113) (= |_FH_0'| 114) (= |_FH_0'| 115) (= |_FH_0'| 116) (= |_FH_0'| 117) (= |_FH_0'| 118) (= |_FH_0'| 119) (= |_FH_0'| 120) (= |_FH_0'| 121) (= |_FH_0'| 122) (= |_FH_0'| 123) (= |_FH_0'| 124) (= |_FH_0'| 125) (= |_FH_0'| 126) (= |_FH_0'| 127) (= |_FH_0'| 128) (= |_FH_0'| 129) (= |_FH_0'| 130) (= |_FH_0'| 131) (= |_FH_0'| 132) (= |_FH_0'| 133) (= |_FH_0'| 134) (= |_FH_0'| 135) (= |_FH_0'| 136) (= |_FH_0'| 137) (= |_FH_0'| 138) (= |_FH_0'| 139) (= |_FH_0'| 140) (= |_FH_0'| 141) (= |_FH_0'| 142) (= |_FH_0'| 143) (= |_FH_0'| 144) (= |_FH_0'| 145) (= |_FH_0'| 146) (= |_FH_0'| 147) (= |_FH_0'| 148) (= |_FH_0'| 149) (= |_FH_0'| 150) (= |_FH_0'| 151) (= |_FH_0'| 152) (= |_FH_0'| 153) (= |_FH_0'| 154) (= |_FH_0'| 155) (= |_FH_0'| 156) (= |_FH_0'| 157) (= |_FH_0'| 158) (= |_FH_0'| 159) (= |_FH_0'| 160) (= |_FH_0'| 161) (= |_FH_0'| 162) (= |_FH_0'| 163) (= |_FH_0'| 164) (= |_FH_0'| 165) (= |_FH_0'| 166) (= |_FH_0'| 167) (= |_FH_0'| 168) (= |_FH_0'| 169) (= |_FH_0'| 170) (= |_FH_0'| 171) (= |_FH_0'| 172) (= |_FH_0'| 173) (= |_FH_0'| 174) (= |_FH_0'| 175) (= |_FH_0'| 176) (= |_FH_0'| 177) (= |_FH_0'| 178) (= |_FH_0'| 179) (= |_FH_0'| 180) (= |_FH_0'| 181) (= |_FH_0'| 182) (= |_FH_0'| 183) (= |_FH_0'| 184) (= |_FH_0'| 185) (= |_FH_0'| 186) (= |_FH_0'| 187) (= |_FH_0'| 188) (= |_FH_0'| 189) (= |_FH_0'| 190) (= |_FH_0'| 191) (= |_FH_0'| 192) (= |_FH_0'| 193) (= |_FH_0'| 194) (= |_FH_0'| 195) (= |_FH_0'| 196) (= |_FH_0'| 197) (= |_FH_0'| 198) (= |_FH_0'| 199) (= |_FH_0'| 200) (= |_FH_0'| 201) (= |_FH_0'| 202) (= |_FH_0'| 203) (= |_FH_0'| 204) (= |_FH_0'| 205) (= |_FH_0'| 206) (= |_FH_0'| 207) (= |_FH_0'| 208) (= |_FH_0'| 209) (= |_FH_0'| 210) (= |_FH_0'| 211) (= |_FH_0'| 212) (= |_FH_0'| 213) (= |_FH_0'| 214) (= |_FH_0'| 215) (= |_FH_0'| 216) (= |_FH_0'| 217) (= |_FH_0'| 218) (= |_FH_0'| 219) (= |_FH_0'| 220) (= |_FH_0'| 221) (= |_FH_0'| 222) (= |_FH_0'| 223) (= |_FH_0'| 224) (= |_FH_0'| 225) (= |_FH_0'| 226) (= |_FH_0'| 227) (= |_FH_0'| 228) (= |_FH_0'| 229) (= |_FH_0'| 230) (= |_FH_0'| 231) (= |_FH_0'| 232) (= |_FH_0'| 233) (= |_FH_0'| 234) (= |_FH_0'| 235) (= |_FH_0'| 236) (= |_FH_0'| 237) (= |_FH_0'| 238) (= |_FH_0'| 239) (= |_FH_0'| 240) (= |_FH_0'| 241) (= |_FH_0'| 242) (= |_FH_0'| 243) (= |_FH_0'| 244) (= |_FH_0'| 245) (= |_FH_0'| 246) (= |_FH_0'| 247) (= |_FH_0'| 248) (= |_FH_0'| 249) (= |_FH_0'| 250) (= |_FH_0'| 251) (= |_FH_0'| 252) (= |_FH_0'| 253) (= |_FH_0'| 254) (= |_FH_0'| 255) (= |_FH_0'| 256) (= |_FH_0'| 257) (= |_FH_0'| 258) (= |_FH_0'| 259) (= |_FH_0'| 260) (= |_FH_0'| 261) (= |_FH_0'| 262) (= |_FH_0'| 263) (= |_FH_0'| 264) (= |_FH_0'| 265) (= |_FH_0'| 266) (= |_FH_0'| 267) (= |_FH_0'| 268) (= |_FH_0'| 269) (= |_FH_0'| 270) (= |_FH_0'| 271) (= |_FH_0'| 272) (= |_FH_0'| 273) (= |_FH_0'| 274) (= |_FH_0'| 275) (= |_FH_0'| 276) (= |_FH_0'| 277) (= |_FH_0'| 278) (= |_FH_0'| 279) (= |_FH_0'| 280) (= |_FH_0'| 281) (= |_FH_0'| 282) (= |_FH_0'| 283) (= |_FH_0'| 284) (= |_FH_0'| 285) (= |_FH_0'| 286) (= |_FH_0'| 287) (= |_FH_0'| 288) (= |_FH_0'| 289) (= |_FH_0'| 290) (= |_FH_0'| 291) (= |_FH_0'| 292) (= |_FH_0'| 293) (= |_FH_0'| 294) (= |_FH_0'| 295) (= |_FH_0'| 296) (= |_FH_0'| 297) (= |_FH_0'| 298) (= |_FH_0'| 299) (= |_FH_0'| 300) (= |_FH_0'| 301) (= |_FH_0'| 302) (= |_FH_0'| 303) (= |_FH_0'| 304) (= |_FH_0'| 305) (= |_FH_0'| 306) (= |_FH_0'| 307) (= |_FH_0'| 308) (= |_FH_0'| 309) (= |_FH_0'| 310) (= |_FH_0'| 311) (= |_FH_0'| 312) (= |_FH_0'| 313) (= |_FH_0'| 314) (= |_FH_0'| 315) (= |_FH_0'| 316) (= |_FH_0'| 317) (= |_FH_0'| 318) (= |_FH_0'| 319) (= |_FH_0'| 320) (= |_FH_0'| 321) (= |_FH_0'| 322) (= |_FH_0'| 323) (= |_FH_0'| 324) (= |_FH_0'| 325) (= |_FH_0'| 326) (= |_FH_0'| 327) (= |_FH_0'| 328) (= |_FH_0'| 329) (= |_FH_0'| 330) (= |_FH_0'| 331) (= |_FH_0'| 332) (= |_FH_0'| 333) (= |_FH_0'| 334) (= |_FH_0'| 335) (= |_FH_0'| 336) (= |_FH_0'| 337) (= |_FH_0'| 338) (= |_FH_0'| 339) (= |_FH_0'| 340) (= |_FH_0'| 341) (= |_FH_0'| 342) (= |_FH_0'| 343) (= |_FH_0'| 344) (= |_FH_0'| 345) (= |_FH_0'| 346) (= |_FH_0'| 347) (= |_FH_0'| 348) (= |_FH_0'| 349) (= |_FH_0'| 350) (= |_FH_0'| 351) (= |_FH_0'| 352) (= |_FH_0'| 353) (= |_FH_0'| 354) (= |_FH_0'| 355) (= |_FH_0'| 356) (= |_FH_0'| 357) (= |_FH_0'| 358) (= |_FH_0'| 359) (= |_FH_0'| 360) (= |_FH_0'| 361) (= |_FH_0'| 362) (= |_FH_0'| 363) (= |_FH_0'| 364) (= |_FH_0'| 365) (= |_FH_0'| 366) (= |_FH_0'| 367) (= |_FH_0'| 368) (= |_FH_0'| 369) (= |_FH_0'| 370) (= |_FH_0'| 371) (= |_FH_0'| 372) (= |_FH_0'| 373) (= |_FH_0'| 374) (= |_FH_0'| 375) (= |_FH_0'| 376) (= |_FH_0'| 377) (= |_FH_0'| 378) (= |_FH_0'| 379) (= |_FH_0'| 380) (= |_FH_0'| 381) (= |_FH_0'| 382) (= |_FH_0'| 383) (= |_FH_0'| 384) (= |_FH_0'| 385) (= |_FH_0'| 386) (= |_FH_0'| 387) (= |_FH_0'| 388) (= |_FH_0'| 389) (= |_FH_0'| 390) (= |_FH_0'| 391) (= |_FH_0'| 392) (= |_FH_0'| 393) (= |_FH_0'| 394) (= |_FH_0'| 395) (= |_FH_0'| 396) (= |_FH_0'| 397) (= |_FH_0'| 398) (= |_FH_0'| 399) (= |_FH_0'| 400) (= |_FH_0'| 401) (= |_FH_0'| 402) (= |_FH_0'| 403) (= |_FH_0'| 404) (= |_FH_0'| 405) (= |_FH_0'| 406) (= |_FH_0'| 407) (= |_FH_0'| 408) (= |_FH_0'| 409) (= |_FH_0'| 410) (= |_FH_0'| 411) (= |_FH_0'| 412) (= |_FH_0'| 413) (= |_FH_0'| 414) (= |_FH_0'| 415) (= |_FH_0'| 416) (= |_FH_0'| 417) (= |_FH_0'| 418) (= |_FH_0'| 419) (= |_FH_0'| 420) (= |_FH_0'| 421) (= |_FH_0'| 422) (= |_FH_0'| 423) (= |_FH_0'| 424) (= |_FH_0'| 425) (= |_FH_0'| 426) (= |_FH_0'| 427) (= |_FH_0'| 428) (= |_FH_0'| 429) (= |_FH_0'| 430) (= |_FH_0'| 431) (= |_FH_0'| 432) (= |_FH_0'| 433) (= |_FH_0'| 434) (= |_FH_0'| 435) (= |_FH_0'| 436) (= |_FH_0'| 437) (= |_FH_0'| 438) (= |_FH_0'| 439) (= |_FH_0'| 440) (= |_FH_0'| 441) (= |_FH_0'| 442) (= |_FH_0'| 443) (= |_FH_0'| 444) (= |_FH_0'| 445) (= |_FH_0'| 446) (= |_FH_0'| 447) (= |_FH_0'| 448) (= |_FH_0'| 449) (= |_FH_0'| 450) (= |_FH_0'| 451) (= |_FH_0'| 452) (= |_FH_0'| 453) (= |_FH_0'| 454) (= |_FH_0'| 455) (= |_FH_0'| 456) (= |_FH_0'| 457) (= |_FH_0'| 458) (= |_FH_0'| 459) (= |_FH_0'| 460) (= |_FH_0'| 461) (= |_FH_0'| 462) (= |_FH_0'| 463) (= |_FH_0'| 464) (= |_FH_0'| 465) (= |_FH_0'| 466) (= |_FH_0'| 467) (= |_FH_0'| 468) (= |_FH_0'| 469) (= |_FH_0'| 470) (= |_FH_0'| 471) (= |_FH_0'| 472) (= |_FH_0'| 473) (= |_FH_0'| 474) (= |_FH_0'| 475) (= |_FH_0'| 476) (= |_FH_0'| 477) (= |_FH_0'| 478) (= |_FH_0'| 479) (= |_FH_0'| 480) (= |_FH_0'| 481) (= |_FH_0'| 482) (= |_FH_0'| 483) (= |_FH_0'| 484) (= |_FH_0'| 485) (= |_FH_0'| 486) (= |_FH_0'| 487) (= |_FH_0'| 488) (= |_FH_0'| 489) (= |_FH_0'| 490) (= |_FH_0'| 491) (= |_FH_0'| 492) (= |_FH_0'| 493) (= |_FH_0'| 494) (= |_FH_0'| 495) (= |_FH_0'| 496) (= |_FH_0'| 497) (= |_FH_0'| 498) (= |_FH_0'| 499) (= |_FH_0'| 500) (= |_FH_0'| 501) (= |_FH_0'| 502) (= |_FH_0'| 503) (= |_FH_0'| 504) (= |_FH_0'| 505) (= |_FH_0'| 506) (= |_FH_0'| 507) (= |_FH_0'| 508) (= |_FH_0'| 509) (= |_FH_0'| 510) (= |_FH_0'| 511) (= |_FH_0'| 512) (= |_FH_0'| 513) (= |_FH_0'| 514) (= |_FH_0'| 515) (= |_FH_0'| 516) (= |_FH_0'| 517) (= |_FH_0'| 518) (= |_FH_0'| 519) (= |_FH_0'| 520) (= |_FH_0'| 521) (= |_FH_0'| 522) (= |_FH_0'| 523) (= |_FH_0'| 524) (= |_FH_0'| 525) (= |_FH_0'| 526) (= |_FH_0'| 527) (= |_FH_0'| 528) (= |_FH_0'| 529) (= |_FH_0'| 530) (= |_FH_0'| 531) (= |_FH_0'| 532) (= |_FH_0'| 533) (= |_FH_0'| 534) (= |_FH_0'| 535) (= |_FH_0'| 536) (= |_FH_0'| 537) (= |_FH_0'| 538) (= |_FH_0'| 539) (= |_FH_0'| 540) (= |_FH_0'| 541) (= |_FH_0'| 542) (= |_FH_0'| 543) (= |_FH_0'| 544) (= |_FH_0'| 545) (= |_FH_0'| 546) (= |_FH_0'| 547) (= |_FH_0'| 548) (= |_FH_0'| 549) (= |_FH_0'| 550) (= |_FH_0'| 551) (= |_FH_0'| 552) (= |_FH_0'| 553) (= |_FH_0'| 554) (= |_FH_0'| 555) (= |_FH_0'| 556) (= |_FH_0'| 557) (= |_FH_0'| 558) (= |_FH_0'| 559) (= |_FH_0'| 560) (= |_FH_0'| 561) (= |_FH_0'| 562) (= |_FH_0'| 563) (= |_FH_0'| 564) (= |_FH_0'| 565) (= |_FH_0'| 566) (= |_FH_0'| 567) (= |_FH_0'| 568) (= |_FH_0'| 569) (= |_FH_0'| 570) (= |_FH_0'| 571) (= |_FH_0'| 572) (= |_FH_0'| 573) (= |_FH_0'| 574) (= |_FH_0'| 575) (= |_FH_0'| 576) (= |_FH_0'| 577) (= |_FH_0'| 578) (= |_FH_0'| 579) (= |_FH_0'| 580) (= |_FH_0'| 581) (= |_FH_0'| 582) (= |_FH_0'| 583) (= |_FH_0'| 584) (= |_FH_0'| 585) (= |_FH_0'| 586) (= |_FH_0'| 587) (= |_FH_0'| 588) (= |_FH_0'| 589) (= |_FH_0'| 590) (= |_FH_0'| 591) (= |_FH_0'| 592) (= |_FH_0'| 593) (= |_FH_0'| 594) (= |_FH_0'| 595) (= |_FH_0'| 596) (= |_FH_0'| 597) (= |_FH_0'| 598) (= |_FH_0'| 599) (= |_FH_0'| 600) (= |_FH_0'| 601) (= |_FH_0'| 602) (= |_FH_0'| 603) (= |_FH_0'| 604) (= |_FH_0'| 605) (= |_FH_0'| 606) (= |_FH_0'| 607) (= |_FH_0'| 608) (= |_FH_0'| 609) (= |_FH_0'| 610) (= |_FH_0'| 611) (= |_FH_0'| 612) (= |_FH_0'| 613) (= |_FH_0'| 614) (= |_FH_0'| 615) (= |_FH_0'| 616) (= |_FH_0'| 617) (= |_FH_0'| 618) (= |_FH_0'| 619) (= |_FH_0'| 620) (= |_FH_0'| 621) (= |_FH_0'| 622) (= |_FH_0'| 623) (= |_FH_0'| 624) (= |_FH_0'| 625) (= |_FH_0'| 626) (= |_FH_0'| 627) (= |_FH_0'| 628) (= |_FH_0'| 629) (= |_FH_0'| 630) (= |_FH_0'| 631) (= |_FH_0'| 632) (= |_FH_0'| 633) (= |_FH_0'| 634) (= |_FH_0'| 635) (= |_FH_0'| 636) (= |_FH_0'| 637) (= |_FH_0'| 638) (= |_FH_0'| 639) (= |_FH_0'| 640) (= |_FH_0'| 641) (= |_FH_0'| 642) (= |_FH_0'| 643) (= |_FH_0'| 644) (= |_FH_0'| 645) (= |_FH_0'| 646) (= |_FH_0'| 647) (= |_FH_0'| 648) (= |_FH_0'| 649) (= |_FH_0'| 650) (= |_FH_0'| 651) (= |_FH_0'| 652) (= |_FH_0'| 653) (= |_FH_0'| 654) (= |_FH_0'| 655) (= |_FH_0'| 656) (= |_FH_0'| 657) (= |_FH_0'| 658) (= |_FH_0'| 659) (= |_FH_0'| 660) (= |_FH_0'| 661) (= |_FH_0'| 662) (= |_FH_0'| 663) (= |_FH_0'| 664) (= |_FH_0'| 665) (= |_FH_0'| 666) (= |_FH_0'| 667) (= |_FH_0'| 668) (= |_FH_0'| 669) (= |_FH_0'| 670) (= |_FH_0'| 671) (= |_FH_0'| 672) (= |_FH_0'| 673) (= |_FH_0'| 674) (= |_FH_0'| 675) (= |_FH_0'| 676) (= |_FH_0'| 677) (= |_FH_0'| 678) (= |_FH_0'| 679) (= |_FH_0'| 680) (= |_FH_0'| 681) (= |_FH_0'| 682) (= |_FH_0'| 683) (= |_FH_0'| 684) (= |_FH_0'| 685) (= |_FH_0'| 686) (= |_FH_0'| 687) (= |_FH_0'| 688) (= |_FH_0'| 689) (= |_FH_0'| 690) (= |_FH_0'| 691) (= |_FH_0'| 692) (= |_FH_0'| 693) (= |_FH_0'| 694) (= |_FH_0'| 695) (= |_FH_0'| 696) (= |_FH_0'| 697) (= |_FH_0'| 698) (= |_FH_0'| 699) (= |_FH_0'| 700) (= |_FH_0'| 701) (= |_FH_0'| 702) (= |_FH_0'| 703) (= |_FH_0'| 704) (= |_FH_0'| 705) (= |_FH_0'| 706) (= |_FH_0'| 707) (= |_FH_0'| 708) (= |_FH_0'| 709) (= |_FH_0'| 710) (= |_FH_0'| 711) (= |_FH_0'| 712) (= |_FH_0'| 713) (= |_FH_0'| 714) (= |_FH_0'| 715) (= |_FH_0'| 716) (= |_FH_0'| 717) (= |_FH_0'| 718) (= |_FH_0'| 719) (= |_FH_0'| 720) (= |_FH_0'| 721) (= |_FH_0'| 722) (= |_FH_0'| 723) (= |_FH_0'| 724) (= |_FH_0'| 725) (= |_FH_0'| 726) (= |_FH_0'| 727) (= |_FH_0'| 728) (= |_FH_0'| 729) (= |_FH_0'| 730) (= |_FH_0'| 731) (= |_FH_0'| 732) (= |_FH_0'| 733) (= |_FH_0'| 734) (= |_FH_0'| 735) (= |_FH_0'| 736) (= |_FH_0'| 737) (= |_FH_0'| 738) (= |_FH_0'| 739) (= |_FH_0'| 740) (= |_FH_0'| 741) (= |_FH_0'| 742) (= |_FH_0'| 743) (= |_FH_0'| 744) (= |_FH_0'| 745) (= |_FH_0'| 746) (= |_FH_0'| 747) (= |_FH_0'| 748) (= |_FH_0'| 749) (= |_FH_0'| 750) (= |_FH_0'| 751) (= |_FH_0'| 752) (= |_FH_0'| 753) (= |_FH_0'| 754) (= |_FH_0'| 755) (= |_FH_0'| 756) (= |_FH_0'| 757) (= |_FH_0'| 758) (= |_FH_0'| 759) (= |_FH_0'| 760) (= |_FH_0'| 761) (= |_FH_0'| 762) (= |_FH_0'| 763) (= |_FH_0'| 764) (= |_FH_0'| 765) (= |_FH_0'| 766) (= |_FH_0'| 767) (= |_FH_0'| 768) (= |_FH_0'| 769) (= |_FH_0'| 770) (= |_FH_0'| 771) (= |_FH_0'| 772) (= |_FH_0'| 773) (= |_FH_0'| 774) (= |_FH_0'| 775) (= |_FH_0'| 776) (= |_FH_0'| 777) (= |_FH_0'| 778) (= |_FH_0'| 779) (= |_FH_0'| 780) (= |_FH_0'| 781) (= |_FH_0'| 782) (= |_FH_0'| 783) (= |_FH_0'| 784) (= |_FH_0'| 785) (= |_FH_0'| 786) (= |_FH_0'| 787) (= |_FH_0'| 788) (= |_FH_0'| 789) (= |_FH_0'| 790) (= |_FH_0'| 791) (= |_FH_0'| 792) (= |_FH_0'| 793) (= |_FH_0'| 794) (= |_FH_0'| 795) (= |_FH_0'| 796) (= |_FH_0'| 797) (= |_FH_0'| 798) (= |_FH_0'| 799) (= |_FH_0'| 800) (= |_FH_0'| 801) (= |_FH_0'| 802) (= |_FH_0'| 803) (= |_FH_0'| 804) (= |_FH_0'| 805) (= |_FH_0'| 806) (= |_FH_0'| 807) (= |_FH_0'| 808) (= |_FH_0'| 809) (= |_FH_0'| 810) (= |_FH_0'| 811) (= |_FH_0'| 812) (= |_FH_0'| 813) (= |_FH_0'| 814) (= |_FH_0'| 815) (= |_FH_0'| 816) (= |_FH_0'| 817) (= |_FH_0'| 818) (= |_FH_0'| 819) (= |_FH_0'| 820) (= |_FH_0'| 821) (= |_FH_0'| 822) (= |_FH_0'| 823) (= |_FH_0'| 824) (= |_FH_0'| 825) (= |_FH_0'| 826) (= |_FH_0'| 827) (= |_FH_0'| 828) (= |_FH_0'| 829) (= |_FH_0'| 830) (= |_FH_0'| 831) (= |_FH_0'| 832) (= |_FH_0'| 833) (= |_FH_0'| 834) (= |_FH_0'| 835) (= |_FH_0'| 836) (= |_FH_0'| 837) (= |_FH_0'| 838) (= |_FH_0'| 839) (= |_FH_0'| 840) (= |_FH_0'| 841) (= |_FH_0'| 842) (= |_FH_0'| 843) (= |_FH_0'| 844) (= |_FH_0'| 845) (= |_FH_0'| 846) (= |_FH_0'| 847) (= |_FH_0'| 848) (= |_FH_0'| 849) (= |_FH_0'| 850) (= |_FH_0'| 851) (= |_FH_0'| 852) (= |_FH_0'| 853) (= |_FH_0'| 854) (= |_FH_0'| 855) (= |_FH_0'| 856) (= |_FH_0'| 857) (= |_FH_0'| 858) (= |_FH_0'| 859) (= |_FH_0'| 860) (= |_FH_0'| 861) (= |_FH_0'| 862) (= |_FH_0'| 863) (= |_FH_0'| 864) (= |_FH_0'| 865) (= |_FH_0'| 866) (= |_FH_0'| 867) (= |_FH_0'| 868) (= |_FH_0'| 869) (= |_FH_0'| 870) (= |_FH_0'| 871) (= |_FH_0'| 872) (= |_FH_0'| 873) (= |_FH_0'| 874) (= |_FH_0'| 875) (= |_FH_0'| 876) (= |_FH_0'| 877) (= |_FH_0'| 878) (= |_FH_0'| 879) (= |_FH_0'| 880) (= |_FH_0'| 881) (= |_FH_0'| 882) (= |_FH_0'| 883) (= |_FH_0'| 884) (= |_FH_0'| 885) (= |_FH_0'| 886) (= |_FH_0'| 887) (= |_FH_0'| 888) (= |_FH_0'| 889) (= |_FH_0'| 890) (= |_FH_0'| 891) (= |_FH_0'| 892) (= |_FH_0'| 893) (= |_FH_0'| 894) (= |_FH_0'| 895) (= |_FH_0'| 896) (= |_FH_0'| 897) (= |_FH_0'| 898) (= |_FH_0'| 899) (= |_FH_0'| 900) (= |_FH_0'| 901) (= |_FH_0'| 902) (= |_FH_0'| 903) (= |_FH_0'| 904) (= |_FH_0'| 905) (= |_FH_0'| 906) (= |_FH_0'| 907) (= |_FH_0'| 908) (= |_FH_0'| 909) (= |_FH_0'| 910) (= |_FH_0'| 911) (= |_FH_0'| 912) (= |_FH_0'| 913) (= |_FH_0'| 914) (= |_FH_0'| 915) (= |_FH_0'| 916) (= |_FH_0'| 917) (= |_FH_0'| 918) (= |_FH_0'| 919) (= |_FH_0'| 920) (= |_FH_0'| 921) (= |_FH_0'| 922) (= |_FH_0'| 923) (= |_FH_0'| 924) (= |_FH_0'| 925) (= |_FH_0'| 926) (= |_FH_0'| 927) (= |_FH_0'| 928) (= |_FH_0'| 929) (= |_FH_0'| 930) (= |_FH_0'| 931) (= |_FH_0'| 932) (= |_FH_0'| 933) (= |_FH_0'| 934) (= |_FH_0'| 935) (= |_FH_0'| 936) (= |_FH_0'| 937) (= |_FH_0'| 938) (= |_FH_0'| 939) (= |_FH_0'| 940) (= |_FH_0'| 941) (= |_FH_0'| 942) (= |_FH_0'| 943) (= |_FH_0'| 944) (= |_FH_0'| 945) (= |_FH_0'| 946) (= |_FH_0'| 947) (= |_FH_0'| 948) (= |_FH_0'| 949) (= |_FH_0'| 950) (= |_FH_0'| 951) (= |_FH_0'| 952) (= |_FH_0'| 953) (= |_FH_0'| 954) (= |_FH_0'| 955) (= |_FH_0'| 956) (= |_FH_0'| 957) (= |_FH_0'| 958) (= |_FH_0'| 959) (= |_FH_0'| 960) (= |_FH_0'| 961) (= |_FH_0'| 962) (= |_FH_0'| 963) (= |_FH_0'| 964) (= |_FH_0'| 965) (= |_FH_0'| 966) (= |_FH_0'| 967) (= |_FH_0'| 968) (= |_FH_0'| 969) (= |_FH_0'| 970) (= |_FH_0'| 971) (= |_FH_0'| 972) (= |_FH_0'| 973) (= |_FH_0'| 974) (= |_FH_0'| 975) (= |_FH_0'| 976) (= |_FH_0'| 977) (= |_FH_0'| 978) (= |_FH_0'| 979) (= |_FH_0'| 980) (= |_FH_0'| 981) (= |_FH_0'| 982) (= |_FH_0'| 983) (= |_FH_0'| 984) (= |_FH_0'| 985) (= |_FH_0'| 986) (= |_FH_0'| 987) (= |_FH_0'| 988) (= |_FH_0'| 989) (= |_FH_0'| 990) (= |_FH_0'| 991) (= |_FH_0'| 992) (= |_FH_0'| 993) (= |_FH_0'| 994) (= |_FH_0'| 995) (= |_FH_0'| 996) (= |_FH_0'| 997) (= |_FH_0'| 998) (= |_FH_0'| 999) (= |_FH_0'| 1000) (= |_FH_0'| 1001) (= |_FH_0'| 1002) (= |_FH_0'| 1003) (= |_FH_0'| 1004) (= |_FH_0'| 1005) (= |_FH_0'| 1006) (= |_FH_0'| 1007) (= |_FH_0'| 1008) (= |_FH_0'| 1009) (= |_FH_0'| 1010) (= |_FH_0'| 1011) (= |_FH_0'| 1012) (= |_FH_0'| 1013) (= |_FH_0'| 1014) (= |_FH_0'| 1015) (= |_FH_0'| 1016) (= |_FH_0'| 1017) (= |_FH_0'| 1018) (= |_FH_0'| 1019) (= |_FH_0'| 1020) (= |_FH_0'| 1021) (= |_FH_0'| 1022) (= |_FH_0'| 1023) (= |_FH_0'| 1024) (= |_FH_0'| 1025) (= |_FH_0'| 1026) (= |_FH_0'| 1027) (= |_FH_0'| 1028) (= |_FH_0'| 1029) (= |_FH_0'| 1030) (= |_FH_0'| 1031) (= |_FH_0'| 1032) (= |_FH_0'| 1033) (= |_FH_0'| 1034) (= |_FH_0'| 1035) (= |_FH_0'| 1036) (= |_FH_0'| 1037) (= |_FH_0'| 1038) (= |_FH_0'| 1039) (= |_FH_0'| 1040) (= |_FH_0'| 1041) (= |_FH_0'| 1042) (= |_FH_0'| 1043) (= |_FH_0'| 1044) (= |_FH_0'| 1045) (= |_FH_0'| 1046) (= |_FH_0'| 1047) (= |_FH_0'| 1048) (= |_FH_0'| 1049) (= |_FH_0'| 1050) (= |_FH_0'| 1051) (= |_FH_0'| 1052) (= |_FH_0'| 1053) (= |_FH_0'| 1054) (= |_FH_0'| 1055) (= |_FH_0'| 1056) (= |_FH_0'| 1057) (= |_FH_0'| 1058) (= |_FH_0'| 1059) (= |_FH_0'| 1060) (= |_FH_0'| 1061) (= |_FH_0'| 1062) (= |_FH_0'| 1063) (= |_FH_0'| 1064) (= |_FH_0'| 1065) (= |_FH_0'| 1066) (= |_FH_0'| 1067) (= |_FH_0'| 1068) (= |_FH_0'| 1069) (= |_FH_0'| 1070) (= |_FH_0'| 1071) (= |_FH_0'| 1072) (= |_FH_0'| 1073) (= |_FH_0'| 1074) (= |_FH_0'| 1075) (= |_FH_0'| 1076) (= |_FH_0'| 1077) (= |_FH_0'| 1078) (= |_FH_0'| 1079) (= |_FH_0'| 1080) (= |_FH_0'| 1081) (= |_FH_0'| 1082) (= |_FH_0'| 1083) (= |_FH_0'| 1084) (= |_FH_0'| 1085) (= |_FH_0'| 1086) (= |_FH_0'| 1087) (= |_FH_0'| 1088) (= |_FH_0'| 1089) (= |_FH_0'| 1090) (= |_FH_0'| 1091) (= |_FH_0'| 1092) (= |_FH_0'| 1093) (= |_FH_0'| 1094) (= |_FH_0'| 1095) (= |_FH_0'| 1096) (= |_FH_0'| 1097) (= |_FH_0'| 1098) (= |_FH_0'| 1099) (= |_FH_0'| 1100) (= |_FH_0'| 1101) (= |_FH_0'| 1102) (= |_FH_0'| 1103) (= |_FH_0'| 1104) (= |_FH_0'| 1105) (= |_FH_0'| 1106) (= |_FH_0'| 1107) (= |_FH_0'| 1108) (= |_FH_0'| 1109) (= |_FH_0'| 1110) (= |_FH_0'| 1111) (= |_FH_0'| 1112) (= |_FH_0'| 1113) (= |_FH_0'| 1114) (= |_FH_0'| 1115) (= |_FH_0'| 1116) (= |_FH_0'| 1117) (= |_FH_0'| 1118) (= |_FH_0'| 1119) (= |_FH_0'| 1120) (= |_FH_0'| 1121) (= |_FH_0'| 1122) (= |_FH_0'| 1123) (= |_FH_0'| 1124) (= |_FH_0'| 1125) (= |_FH_0'| 1126) (= |_FH_0'| 1127) (= |_FH_0'| 1128) (= |_FH_0'| 1129) (= |_FH_0'| 1130) (= |_FH_0'| 1131) (= |_FH_0'| 1132) (= |_FH_0'| 1133) (= |_FH_0'| 1134) (= |_FH_0'| 1135) (= |_FH_0'| 1136) (= |_FH_0'| 1137) (= |_FH_0'| 1138) (= |_FH_0'| 1139) (= |_FH_0'| 1140) (= |_FH_0'| 1141) (= |_FH_0'| 1142) (= |_FH_0'| 1143) (= |_FH_0'| 1144) (= |_FH_0'| 1145) (= |_FH_0'| 1146) (= |_FH_0'| 1147) (= |_FH_0'| 1148) (= |_FH_0'| 1149) (= |_FH_0'| 1150) (= |_FH_0'| 1151) (= |_FH_0'| 1152) (= |_FH_0'| 1153) (= |_FH_0'| 1154) (= |_FH_0'| 1155) (= |_FH_0'| 1156) (= |_FH_0'| 1157) (= |_FH_0'| 1158) (= |_FH_0'| 1159) (= |_FH_0'| 1160) (= |_FH_0'| 1161) (= |_FH_0'| 1162) (= |_FH_0'| 1163) (= |_FH_0'| 1164) (= |_FH_0'| 1165) (= |_FH_0'| 1166) (= |_FH_0'| 1167) (= |_FH_0'| 1168) (= |_FH_0'| 1169) (= |_FH_0'| 1170) (= |_FH_0'| 1171) (= |_FH_0'| 1172) (= |_FH_0'| 1173) (= |_FH_0'| 1174) (= |_FH_0'| 1175) (= |_FH_0'| 1176) (= |_FH_0'| 1177) (= |_FH_0'| 1178) (= |_FH_0'| 1179) (= |_FH_0'| 1180) (= |_FH_0'| 1181) (= |_FH_0'| 1182) (= |_FH_0'| 1183) (= |_FH_0'| 1184) (= |_FH_0'| 1185) (= |_FH_0'| 1186) (= |_FH_0'| 1187) (= |_FH_0'| 1188) (= |_FH_0'| 1189) (= |_FH_0'| 1190) (= |_FH_0'| 1191) (= |_FH_0'| 1192) (= |_FH_0'| 1193) (= |_FH_0'| 1194) (= |_FH_0'| 1195) (= |_FH_0'| 1196) (= |_FH_0'| 1197) (= |_FH_0'| 1198) (= |_FH_0'| 1199) (= |_FH_0'| 1200) (= |_FH_0'| 1201) (= |_FH_0'| 1202) (= |_FH_0'| 1203) (= |_FH_0'| 1204) (= |_FH_0'| 1205) (= |_FH_0'| 1206) (= |_FH_0'| 1207) (= |_FH_0'| 1208) (= |_FH_0'| 1209) (= |_FH_0'| 1210) (= |_FH_0'| 1211) (= |_FH_0'| 1212) (= |_FH_0'| 1213) (= |_FH_0'| 1214) (= |_FH_0'| 1215) (= |_FH_0'| 1216) (= |_FH_0'| 1217) (= |_FH_0'| 1218) (= |_FH_0'| 1219) (= |_FH_0'| 1220) (= |_FH_0'| 1221) (= |_FH_0'| 1222) (= |_FH_0'| 1223) (= |_FH_0'| 1224) (= |_FH_0'| 1225) (= |_FH_0'| 1226) (= |_FH_0'| 1227) (= |_FH_0'| 1228) (= |_FH_0'| 1229) (= |_FH_0'| 1230) (= |_FH_0'| 1231) (= |_FH_0'| 1232) (= |_FH_0'| 1233) (= |_FH_0'| 1234) (= |_FH_0'| 1235) (= |_FH_0'| 1236) (= |_FH_0'| 1237) (= |_FH_0'| 1238) (= |_FH_0'| 1239) (= |_FH_0'| 1240) (= |_FH_0'| 1241) (= |_FH_0'| 1242) (= |_FH_0'| 1243) (= |_FH_0'| 1244) (= |_FH_0'| 1245) (= |_FH_0'| 1246) (= |_FH_0'| 1247) (= |_FH_0'| 1248) (= |_FH_0'| 1249) (= |_FH_0'| 1250) (= |_FH_0'| 1251) (= |_FH_0'| 1252) (= |_FH_0'| 1253) (= |_FH_0'| 1254) (= |_FH_0'| 1255) (= |_FH_0'| 1256) (= |_FH_0'| 1257) (= |_FH_0'| 1258) (= |_FH_0'| 1259) (= |_FH_0'| 1260) (= |_FH_0'| 1261) (= |_FH_0'| 1262) (= |_FH_0'| 1263) (= |_FH_0'| 1264) (= |_FH_0'| 1265) (= |_FH_0'| 1266) (= |_FH_0'| 1267) (= |_FH_0'| 1268) (= |_FH_0'| 1269) (= |_FH_0'| 1270) (= |_FH_0'| 1271) (= |_FH_0'| 1272) (= |_FH_0'| 1273) (= |_FH_0'| 1274) (= |_FH_0'| 1275) (= |_FH_0'| 1276) (= |_FH_0'| 1277) (= |_FH_0'| 1278) (= |_FH_0'| 1279) (= |_FH_0'| 1280) (= |_FH_0'| 1281) (= |_FH_0'| 1282) (= |_FH_0'| 1283) (= |_FH_0'| 1284) (= |_FH_0'| 1285) (= |_FH_0'| 1286) (= |_FH_0'| 1287) (= |_FH_0'| 1288) (= |_FH_0'| 1289) (= |_FH_0'| 1290) (= |_FH_0'| 1291) (= |_FH_0'| 1292) (= |_FH_0'| 1293) (= |_FH_0'| 1294) (= |_FH_0'| 1295) (= |_FH_0'| 1296) (= |_FH_0'| 1297) (= |_FH_0'| 1298) (= |_FH_0'| 1299) (= |_FH_0'| 1300) (= |_FH_0'| 1301) (= |_FH_0'| 1302) (= |_FH_0'| 1303) (= |_FH_0'| 1304) (= |_FH_0'| 1305) (= |_FH_0'| 1306) (= |_FH_0'| 1307) (= |_FH_0'| 1308) (= |_FH_0'| 1309) (= |_FH_0'| 1310) (= |_FH_0'| 1311) (= |_FH_0'| 1312) (= |_FH_0'| 1313) (= |_FH_0'| 1314) (= |_FH_0'| 1315) (= |_FH_0'| 1316) (= |_FH_0'| 1317) (= |_FH_0'| 1318) (= |_FH_0'| 1319) (= |_FH_0'| 1320) (= |_FH_0'| 1321) (= |_FH_0'| 1322) (= |_FH_0'| 1323) (= |_FH_0'| 1324) (= |_FH_0'| 1325) (= |_FH_0'| 1326) (= |_FH_0'| 1327) (= |_FH_0'| 1328) (= |_FH_0'| 1329) (= |_FH_0'| 1330) (= |_FH_0'| 1331) (= |_FH_0'| 1332) (= |_FH_0'| 1333) (= |_FH_0'| 1334) (= |_FH_0'| 1335) (= |_FH_0'| 1336) (= |_FH_0'| 1337) (= |_FH_0'| 1338) (= |_FH_0'| 1339) (= |_FH_0'| 1340) (= |_FH_0'| 1341) (= |_FH_0'| 1342) (= |_FH_0'| 1343) (= |_FH_0'| 1344) (= |_FH_0'| 1345) (= |_FH_0'| 1346) (= |_FH_0'| 1347) (= |_FH_0'| 1348) (= |_FH_0'| 1349) (= |_FH_0'| 1350) (= |_FH_0'| 1351) (= |_FH_0'| 1352) (= |_FH_0'| 1353) (= |_FH_0'| 1354) (= |_FH_0'| 1355) (= |_FH_0'| 1356) (= |_FH_0'| 1357) (= |_FH_0'| 1358) (= |_FH_0'| 1359) (= |_FH_0'| 1360) (= |_FH_0'| 1361) (= |_FH_0'| 1362) (= |_FH_0'| 1363) (= |_FH_0'| 1364) (= |_FH_0'| 1365) (= |_FH_0'| 1366) (= |_FH_0'| 1367) (= |_FH_0'| 1368) (= |_FH_0'| 1369) (= |_FH_0'| 1370) (= |_FH_0'| 1371) (= |_FH_0'| 1372) (= |_FH_0'| 1373) (= |_FH_0'| 1374) (= |_FH_0'| 1375) (= |_FH_0'| 1376) (= |_FH_0'| 1377) (= |_FH_0'| 1378) (= |_FH_0'| 1379) (= |_FH_0'| 1380) (= |_FH_0'| 1381) (= |_FH_0'| 1382) (= |_FH_0'| 1383) (= |_FH_0'| 1384) (= |_FH_0'| 1385) (= |_FH_0'| 1386) (= |_FH_0'| 1387) (= |_FH_0'| 1388) (= |_FH_0'| 1389) (= |_FH_0'| 1390) (= |_FH_0'| 1391) (= |_FH_0'| 1392) (= |_FH_0'| 1393) (= |_FH_0'| 1394) (= |_FH_0'| 1395) (= |_FH_0'| 1396) (= |_FH_0'| 1397) (= |_FH_0'| 1398) (= |_FH_0'| 1399) (= |_FH_0'| 1400) (= |_FH_0'| 1401) (= |_FH_0'| 1402) (= |_FH_0'| 1403) (= |_FH_0'| 1404) (= |_FH_0'| 1405) (= |_FH_0'| 1406) (= |_FH_0'| 1407) (= |_FH_0'| 1408) (= |_FH_0'| 1409) (= |_FH_0'| 1410) (= |_FH_0'| 1411) (= |_FH_0'| 1412) (= |_FH_0'| 1413) (= |_FH_0'| 1414) (= |_FH_0'| 1415) (= |_FH_0'| 1416) (= |_FH_0'| 1417) (= |_FH_0'| 1418) (= |_FH_0'| 1419) (= |_FH_0'| 1420) (= |_FH_0'| 1421) (= |_FH_0'| 1422) (= |_FH_0'| 1423) (= |_FH_0'| 1424) (= |_FH_0'| 1425) (= |_FH_0'| 1426) (= |_FH_0'| 1427) (= |_FH_0'| 1428) (= |_FH_0'| 1429) (= |_FH_0'| 1430) (= |_FH_0'| 1431) (= |_FH_0'| 1432) (= |_FH_0'| 1433) (= |_FH_0'| 1434) (= |_FH_0'| 1435) (= |_FH_0'| 1436) (= |_FH_0'| 1437) (= |_FH_0'| 1438) (= |_FH_0'| 1439) (= |_FH_0'| 1440) (= |_FH_0'| 1441) (= |_FH_0'| 1442) (= |_FH_0'| 1443) (= |_FH_0'| 1444) (= |_FH_0'| 1445) (= |_FH_0'| 1446) (= |_FH_0'| 1447) (= |_FH_0'| 1448) (= |_FH_0'| 1449) (= |_FH_0'| 1450) (= |_FH_0'| 1451) (= |_FH_0'| 1452) (= |_FH_0'| 1453) (= |_FH_0'| 1454) (= |_FH_0'| 1455) (= |_FH_0'| 1456) (= |_FH_0'| 1457) (= |_FH_0'| 1458) (= |_FH_0'| 1459) (= |_FH_0'| 1460) (= |_FH_0'| 1461) (= |_FH_0'| 1462) (= |_FH_0'| 1463) (= |_FH_0'| 1464) (= |_FH_0'| 1465) (= |_FH_0'| 1466) (= |_FH_0'| 1467) (= |_FH_0'| 1468) (= |_FH_0'| 1469) (= |_FH_0'| 1470) (= |_FH_0'| 1471) (= |_FH_0'| 1472) (= |_FH_0'| 1473) (= |_FH_0'| 1474) (= |_FH_0'| 1475) (= |_FH_0'| 1476) (= |_FH_0'| 1477) (= |_FH_0'| 1478) (= |_FH_0'| 1479) (= |_FH_0'| 1480) (= |_FH_0'| 1481) (= |_FH_0'| 1482) (= |_FH_0'| 1483) (= |_FH_0'| 1484) (= |_FH_0'| 1485) (= |_FH_0'| 1486) (= |_FH_0'| 1487) (= |_FH_0'| 1488) (= |_FH_0'| 1489) (= |_FH_0'| 1490) (= |_FH_0'| 1491) (= |_FH_0'| 1492) (= |_FH_0'| 1493) (= |_FH_0'| 1494) (= |_FH_0'| 1495) (= |_FH_0'| 1496) (= |_FH_0'| 1497) (= |_FH_0'| 1498) (= |_FH_0'| 1499) (= |_FH_0'| 1500) (= |_FH_0'| 1501) (= |_FH_0'| 1502) (= |_FH_0'| 1503) (= |_FH_0'| 1504) (= |_FH_0'| 1505) (= |_FH_0'| 1506) (= |_FH_0'| 1507) (= |_FH_0'| 1508) (= |_FH_0'| 1509) (= |_FH_0'| 1510) (= |_FH_0'| 1511) (= |_FH_0'| 1512) (= |_FH_0'| 1513) (= |_FH_0'| 1514) (= |_FH_0'| 1515) (= |_FH_0'| 1516) (= |_FH_0'| 1517) (= |_FH_0'| 1518) (= |_FH_0'| 1519) (= |_FH_0'| 1520) (= |_FH_0'| 1521) (= |_FH_0'| 1522) (= |_FH_0'| 1523) (= |_FH_0'| 1524) (= |_FH_0'| 1525) (= |_FH_0'| 1526) (= |_FH_0'| 1527) (= |_FH_0'| 1528) (= |_FH_0'| 1529) (= |_FH_0'| 1530) (= |_FH_0'| 1531) (= |_FH_0'| 1532) (= |_FH_0'| 1533) (= |_FH_0'| 1534) (= |_FH_0'| 1535) (= |_FH_0'| 1536) (= |_FH_0'| 1537) (= |_FH_0'| 1538) (= |_FH_0'| 1539) (= |_FH_0'| 1540) (= |_FH_0'| 1541) (= |_FH_0'| 1542) (= |_FH_0'| 1543) (= |_FH_0'| 1544) (= |_FH_0'| 1545) (= |_FH_0'| 1546) (= |_FH_0'| 1547) (= |_FH_0'| 1548) (= |_FH_0'| 1549) (= |_FH_0'| 1550) (= |_FH_0'| 1551) (= |_FH_0'| 1552) (= |_FH_0'| 1553) (= |_FH_0'| 1554) (= |_FH_0'| 1555) (= |_FH_0'| 1556) (= |_FH_0'| 1557) (= |_FH_0'| 1558) (= |_FH_0'| 1559) (= |_FH_0'| 1560) (= |_FH_0'| 1561) (= |_FH_0'| 1562) (= |_FH_0'| 1563) (= |_FH_0'| 1564) (= |_FH_0'| 1565) (= |_FH_0'| 1566) (= |_FH_0'| 1567) (= |_FH_0'| 1568) (= |_FH_0'| 1569) (= |_FH_0'| 1570) (= |_FH_0'| 1571) (= |_FH_0'| 1572) (= |_FH_0'| 1573) (= |_FH_0'| 1574) (= |_FH_0'| 1575) (= |_FH_0'| 1576) (= |_FH_0'| 1577) (= |_FH_0'| 1578) (= |_FH_0'| 1579) (= |_FH_0'| 1580) (= |_FH_0'| 1581) (= |_FH_0'| 1582) (= |_FH_0'| 1583) (= |_FH_0'| 1584) (= |_FH_0'| 1585) (= |_FH_0'| 1586) (= |_FH_0'| 1587) (= |_FH_0'| 1588) (= |_FH_0'| 1589) (= |_FH_0'| 1590) (= |_FH_0'| 1591) (= |_FH_0'| 1592) (= |_FH_0'| 1593) (= |_FH_0'| 1594) (= |_FH_0'| 1595) (= |_FH_0'| 1596) (= |_FH_0'| 1597) (= |_FH_0'| 1598) (= |_FH_0'| 1599) (= |_FH_0'| 1600) (= |_FH_0'| 1601) (= |_FH_0'| 1602) (= |_FH_0'| 1603) (= |_FH_0'| 1604) (= |_FH_0'| 1605) (= |_FH_0'| 1606) (= |_FH_0'| 1607) (= |_FH_0'| 1608) (= |_FH_0'| 1609) (= |_FH_0'| 1610) (= |_FH_0'| 1611) (= |_FH_0'| 1612) (= |_FH_0'| 1613) (= |_FH_0'| 1614) (= |_FH_0'| 1615) (= |_FH_0'| 1616) (= |_FH_0'| 1617) (= |_FH_0'| 1618) (= |_FH_0'| 1619) (= |_FH_0'| 1620) (= |_FH_0'| 1621) (= |_FH_0'| 1622) (= |_FH_0'| 1623) (= |_FH_0'| 1624) (= |_FH_0'| 1625) (= |_FH_0'| 1626) (= |_FH_0'| 1627) (= |_FH_0'| 1628) (= |_FH_0'| 1629) (= |_FH_0'| 1630) (= |_FH_0'| 1631) (= |_FH_0'| 1632) (= |_FH_0'| 1633) (= |_FH_0'| 1634) (= |_FH_0'| 1635) (= |_FH_0'| 1636) (= |_FH_0'| 1637) (= |_FH_0'| 1638) (= |_FH_0'| 1639) (= |_FH_0'| 1640) (= |_FH_0'| 1641) (= |_FH_0'| 1642) (= |_FH_0'| 1643) (= |_FH_0'| 1644) (= |_FH_0'| 1645) (= |_FH_0'| 1646) (= |_FH_0'| 1647) (= |_FH_0'| 1648) (= |_FH_0'| 1649) (= |_FH_0'| 1650) (= |_FH_0'| 1651) (= |_FH_0'| 1652) (= |_FH_0'| 1653) (= |_FH_0'| 1654) (= |_FH_0'| 1655) (= |_FH_0'| 1656) (= |_FH_0'| 1657) (= |_FH_0'| 1658) (= |_FH_0'| 1659) (= |_FH_0'| 1660) (= |_FH_0'| 1661) (= |_FH_0'| 1662) (= |_FH_0'| 1663) (= |_FH_0'| 1664) (= |_FH_0'| 1665) (= |_FH_0'| 1666) (= |_FH_0'| 1667) (= |_FH_0'| 1668) (= |_FH_0'| 1669) (= |_FH_0'| 1670) (= |_FH_0'| 1671) (= |_FH_0'| 1672) (= |_FH_0'| 1673) (= |_FH_0'| 1674) (= |_FH_0'| 1675) (= |_FH_0'| 1676) (= |_FH_0'| 1677) (= |_FH_0'| 1678) (= |_FH_0'| 1679) (= |_FH_0'| 1680) (= |_FH_0'| 1681) (= |_FH_0'| 1682) (= |_FH_0'| 1683) (= |_FH_0'| 1684) (= |_FH_0'| 1685) (= |_FH_0'| 1686) (= |_FH_0'| 1687) (= |_FH_0'| 1688) (= |_FH_0'| 1689) (= |_FH_0'| 1690) (= |_FH_0'| 1691) (= |_FH_0'| 1692) (= |_FH_0'| 1693) (= |_FH_0'| 1694) (= |_FH_0'| 1695) (= |_FH_0'| 1696) (= |_FH_0'| 1697) (= |_FH_0'| 1698) (= |_FH_0'| 1699) (= |_FH_0'| 1700) (= |_FH_0'| 1701) (= |_FH_0'| 1702) (= |_FH_0'| 1703) (= |_FH_0'| 1704) (= |_FH_0'| 1705) (= |_FH_0'| 1706) (= |_FH_0'| 1707) (= |_FH_0'| 1708) (= |_FH_0'| 1709) (= |_FH_0'| 1710) (= |_FH_0'| 1711) (= |_FH_0'| 1712) (= |_FH_0'| 1713) (= |_FH_0'| 1714) (= |_FH_0'| 1715) (= |_FH_0'| 1716) (= |_FH_0'| 1717) (= |_FH_0'| 1718) (= |_FH_0'| 1719) (= |_FH_0'| 1720) (= |_FH_0'| 1721) (= |_FH_0'| 1722) (= |_FH_0'| 1723) (= |_FH_0'| 1724) (= |_FH_0'| 1725) (= |_FH_0'| 1726) (= |_FH_0'| 1727) (= |_FH_0'| 1728) (= |_FH_0'| 1729) (= |_FH_0'| 1730) (= |_FH_0'| 1731) (= |_FH_0'| 1732) (= |_FH_0'| 1733) (= |_FH_0'| 1734) (= |_FH_0'| 1735) (= |_FH_0'| 1736) (= |_FH_0'| 1737) (= |_FH_0'| 1738) (= |_FH_0'| 1739) (= |_FH_0'| 1740) (= |_FH_0'| 1741) (= |_FH_0'| 1742) (= |_FH_0'| 1743) (= |_FH_0'| 1744) (= |_FH_0'| 1745) (= |_FH_0'| 1746) (= |_FH_0'| 1747) (= |_FH_0'| 1748) (= |_FH_0'| 1749) (= |_FH_0'| 1750) (= |_FH_0'| 1751) (= |_FH_0'| 1752) (= |_FH_0'| 1753) (= |_FH_0'| 1754) (= |_FH_0'| 1755) (= |_FH_0'| 1756) (= |_FH_0'| 1757) (= |_FH_0'| 1758) (= |_FH_0'| 1759) (= |_FH_0'| 1760) (= |_FH_0'| 1761) (= |_FH_0'| 1762) (= |_FH_0'| 1763) (= |_FH_0'| 1764) (= |_FH_0'| 1765) (= |_FH_0'| 1766) (= |_FH_0'| 1767) (= |_FH_0'| 1768) (= |_FH_0'| 1769) (= |_FH_0'| 1770) (= |_FH_0'| 1771) (= |_FH_0'| 1772) (= |_FH_0'| 1773) (= |_FH_0'| 1774) (= |_FH_0'| 1775) (= |_FH_0'| 1776) (= |_FH_0'| 1777) (= |_FH_0'| 1778) (= |_FH_0'| 1779) (= |_FH_0'| 1780) (= |_FH_0'| 1781) (= |_FH_0'| 1782) (= |_FH_0'| 1783) (= |_FH_0'| 1784) (= |_FH_0'| 1785) (= |_FH_0'| 1786) (= |_FH_0'| 1787) (= |_FH_0'| 1788) (= |_FH_0'| 1789) (= |_FH_0'| 1790) (= |_FH_0'| 1791) (= |_FH_0'| 1792) (= |_FH_0'| 1793) (= |_FH_0'| 1794) (= |_FH_0'| 1795) (= |_FH_0'| 1796) (= |_FH_0'| 1797) (= |_FH_0'| 1798) (= |_FH_0'| 1799) (= |_FH_0'| 1800) (= |_FH_0'| 1801) (= |_FH_0'| 1802) (= |_FH_0'| 1803) (= |_FH_0'| 1804) (= |_FH_0'| 1805) (= |_FH_0'| 1806) (= |_FH_0'| 1807) (= |_FH_0'| 1808) (= |_FH_0'| 1809) (= |_FH_0'| 1810) (= |_FH_0'| 1811) (= |_FH_0'| 1812) (= |_FH_0'| 1813) (= |_FH_0'| 1814) (= |_FH_0'| 1815) (= |_FH_0'| 1816) (= |_FH_0'| 1817) (= |_FH_0'| 1818) (= |_FH_0'| 1819) (= |_FH_0'| 1820) (= |_FH_0'| 1821) (= |_FH_0'| 1822) (= |_FH_0'| 1823) (= |_FH_0'| 1824) (= |_FH_0'| 1825) (= |_FH_0'| 1826) (= |_FH_0'| 1827) (= |_FH_0'| 1828) (= |_FH_0'| 1829) (= |_FH_0'| 1830) (= |_FH_0'| 1831) (= |_FH_0'| 1832) (= |_FH_0'| 1833) (= |_FH_0'| 1834) (= |_FH_0'| 1835) (= |_FH_0'| 1836) (= |_FH_0'| 1837) (= |_FH_0'| 1838) (= |_FH_0'| 1839) (= |_FH_0'| 1840) (= |_FH_0'| 1841) (= |_FH_0'| 1842) (= |_FH_0'| 1843) (= |_FH_0'| 1844) (= |_FH_0'| 1845) (= |_FH_0'| 1846) (= |_FH_0'| 1847) (= |_FH_0'| 1848) (= |_FH_0'| 1849) (= |_FH_0'| 1850) (= |_FH_0'| 1851) (= |_FH_0'| 1852) (= |_FH_0'| 1853) (= |_FH_0'| 1854) (= |_FH_0'| 1855) (= |_FH_0'| 1856) (= |_FH_0'| 1857) (= |_FH_0'| 1858) (= |_FH_0'| 1859) (= |_FH_0'| 1860) (= |_FH_0'| 1861) (= |_FH_0'| 1862) (= |_FH_0'| 1863) (= |_FH_0'| 1864) (= |_FH_0'| 1865) (= |_FH_0'| 1866) (= |_FH_0'| 1867) (= |_FH_0'| 1868) (= |_FH_0'| 1869) (= |_FH_0'| 1870) (= |_FH_0'| 1871) (= |_FH_0'| 1872) (= |_FH_0'| 1873) (= |_FH_0'| 1874) (= |_FH_0'| 1875) (= |_FH_0'| 1876) (= |_FH_0'| 1877) (= |_FH_0'| 1878) (= |_FH_0'| 1879) (= |_FH_0'| 1880) (= |_FH_0'| 1881) (= |_FH_0'| 1882) (= |_FH_0'| 1883) (= |_FH_0'| 1884) (= |_FH_0'| 1885) (= |_FH_0'| 1886) (= |_FH_0'| 1887) (= |_FH_0'| 1888) (= |_FH_0'| 1889) (= |_FH_0'| 1890) (= |_FH_0'| 1891) (= |_FH_0'| 1892) (= |_FH_0'| 1893) (= |_FH_0'| 1894) (= |_FH_0'| 1895) (= |_FH_0'| 1896) (= |_FH_0'| 1897) (= |_FH_0'| 1898) (= |_FH_0'| 1899) (= |_FH_0'| 1900) (= |_FH_0'| 1901) (= |_FH_0'| 1902) (= |_FH_0'| 1903) (= |_FH_0'| 1904) (= |_FH_0'| 1905) (= |_FH_0'| 1906) (= |_FH_0'| 1907) (= |_FH_0'| 1908) (= |_FH_0'| 1909) (= |_FH_0'| 1910) (= |_FH_0'| 1911) (= |_FH_0'| 1912) (= |_FH_0'| 1913) (= |_FH_0'| 1914) (= |_FH_0'| 1915) (= |_FH_0'| 1916) (= |_FH_0'| 1917) (= |_FH_0'| 1918) (= |_FH_0'| 1919) (= |_FH_0'| 1920) (= |_FH_0'| 1921) (= |_FH_0'| 1922) (= |_FH_0'| 1923) (= |_FH_0'| 1924) (= |_FH_0'| 1925) (= |_FH_0'| 1926) (= |_FH_0'| 1927) (= |_FH_0'| 1928) (= |_FH_0'| 1929) (= |_FH_0'| 1930) (= |_FH_0'| 1931) (= |_FH_0'| 1932) (= |_FH_0'| 1933) (= |_FH_0'| 1934) (= |_FH_0'| 1935) (= |_FH_0'| 1936) (= |_FH_0'| 1937) (= |_FH_0'| 1938) (= |_FH_0'| 1939) (= |_FH_0'| 1940) (= |_FH_0'| 1941) (= |_FH_0'| 1942) (= |_FH_0'| 1943) (= |_FH_0'| 1944) (= |_FH_0'| 1945) (= |_FH_0'| 1946) (= |_FH_0'| 1947) (= |_FH_0'| 1948) (= |_FH_0'| 1949) (= |_FH_0'| 1950) (= |_FH_0'| 1951) (= |_FH_0'| 1952) (= |_FH_0'| 1953) (= |_FH_0'| 1954) (= |_FH_0'| 1955) (= |_FH_0'| 1956) (= |_FH_0'| 1957) (= |_FH_0'| 1958) (= |_FH_0'| 1959) (= |_FH_0'| 1960) (= |_FH_0'| 1961) (= |_FH_0'| 1962) (= |_FH_0'| 1963) (= |_FH_0'| 1964) (= |_FH_0'| 1965) (= |_FH_0'| 1966) (= |_FH_0'| 1967) (= |_FH_0'| 1968) (= |_FH_0'| 1969) (= |_FH_0'| 1970) (= |_FH_0'| 1971) (= |_FH_0'| 1972) (= |_FH_0'| 1973) (= |_FH_0'| 1974) (= |_FH_0'| 1975) (= |_FH_0'| 1976) (= |_FH_0'| 1977) (= |_FH_0'| 1978) (= |_FH_0'| 1979) (= |_FH_0'| 1980) (= |_FH_0'| 1981) (= |_FH_0'| 1982) (= |_FH_0'| 1983) (= |_FH_0'| 1984) (= |_FH_0'| 1985) (= |_FH_0'| 1986) (= |_FH_0'| 1987) (= |_FH_0'| 1988) (= |_FH_0'| 1989) (= |_FH_0'| 1990) (= |_FH_0'| 1991) (= |_FH_0'| 1992) (= |_FH_0'| 1993) (= |_FH_0'| 1994) (= |_FH_0'| 1995) (= |_FH_0'| 1996) (= |_FH_0'| 1997) (= |_FH_0'| 1998) (= |_FH_0'| 1999) (= |_FH_0'| 2000) (= |_FH_0'| 2001) (= |_FH_0'| 2002) (= |_FH_0'| 2003) (= |_FH_0'| 2004) (= |_FH_0'| 2005) (= |_FH_0'| 2006) (= |_FH_0'| 2007) (= |_FH_0'| 2008) (= |_FH_0'| 2009) (= |_FH_0'| 2010) (= |_FH_0'| 2011) (= |_FH_0'| 2012) (= |_FH_0'| 2013) (= |_FH_0'| 2014) (= |_FH_0'| 2015) (= |_FH_0'| 2016) (= |_FH_0'| 2017) (= |_FH_0'| 2018) (= |_FH_0'| 2019) (= |_FH_0'| 2020) (= |_FH_0'| 2021) (= |_FH_0'| 2022) (= |_FH_0'| 2023) (= |_FH_0'| 2024) (= |_FH_0'| 2025) (= |_FH_0'| 2026) (= |_FH_0'| 2027) (= |_FH_0'| 2028) (= |_FH_0'| 2029) (= |_FH_0'| 2030) (= |_FH_0'| 2031) (= |_FH_0'| 2032) (= |_FH_0'| 2033) (= |_FH_0'| 2034) (= |_FH_0'| 2035) (= |_FH_0'| 2036) (= |_FH_0'| 2037) (= |_FH_0'| 2038) (= |_FH_0'| 2039) (= |_FH_0'| 2040) (= |_FH_0'| 2041) (= |_FH_0'| 2042) (= |_FH_0'| 2043) (= |_FH_0'| 2044) (= |_FH_0'| 2045) (= |_FH_0'| 2046) (= |_FH_0'| 2047) (= |_FH_0'| 2048)) (= |count'| 0))
    (itp_0 |count'| |_FH_0'|))))

(assert (forall ((_FH_0 Int) (|_FH_0'| Int) (count Int) (|count'| Int))
  (=>
    (and (= |_FH_0'| (+ _FH_0 1)) (itp_0 count _FH_0) (< count 100) (= |count'| (+ count 1)))
    (itp_0 |count'| |_FH_0'|))))

(assert (forall ((_FH_0 Int) (count Int))
  (=>
    (and (itp_0 count _FH_0) (>= count 100))
    (itp_1 count _FH_0))))

(assert (forall ((_FH_0 Int) (|_FH_0'| Int) (count Int) (|count'| Int))
  (=>
    (and (= |_FH_0'| (+ _FH_0 1)) (itp_1 count _FH_0) (< count 200) (= |count'| (+ count 1)))
    (itp_1 |count'| |_FH_0'|))))

(assert (forall ((_FH_0 Int) (count Int))
  (=>
    (and (itp_1 count _FH_0) (>= count 200))
    (itp_2 count _FH_0))))

(assert (forall ((_FH_0 Int) (|_FH_0'| Int) (count Int) (|count'| Int))
  (=>
    (and (= |_FH_0'| (+ _FH_0 1)) (itp_2 count _FH_0) (< count 300) (= |count'| (+ count 1)))
    (itp_2 |count'| |_FH_0'|))))

(assert (forall ((_FH_0 Int) (count Int))
  (=>
    (and (itp_2 count _FH_0) (>= count 300))
    (itp_3 count _FH_0))))

(assert (forall ((_FH_0 Int) (|_FH_0'| Int) (count Int) (|count'| Int))
  (=>
    (and (= |_FH_0'| (+ _FH_0 1)) (itp_3 count _FH_0) (< count 400) (= |count'| (+ count 1)))
    (itp_3 |count'| |_FH_0'|))))

(assert (forall ((_FH_0 Int) (count Int))
  (=>
    (and (itp_3 count _FH_0) (>= count 400))
    (itp_4 count _FH_0))))

(assert (forall ((_FH_0 Int) (|_FH_0'| Int) (count Int) (|count'| Int))
  (=>
    (and (= |_FH_0'| (+ _FH_0 1)) (itp_4 count _FH_0) (< count 500) (= |count'| (+ count 1)))
    (itp_4 |count'| |_FH_0'|))))

(assert (forall ((_FH_0 Int) (count Int) (|count'| Int))
  (=>
    (and (<= _FH_0 0) (itp_4 |count'| _FH_0) (>= count 500))
    false)))

(check-sat)
